/* IPET system */
max:17 e8_10_main+ 17 e9_10_main+ 10 e6_9_main+ 9 e6_8_main+ 17 e5_7_main+ 5 e5_6_main+ 7 e3_5_main+ 7 e7_5_main+ 14 e2_4_main+ 9 e2_3_main+ 7 e1_2_main+ 7 e4_2_main+ 18 e0_1_main;
x0_main = 1;	/* program entry constraint*/
x11_main =e10_11_main;	/* structural input constraint*/
x10_main =e10_11_main;	/* structural output constraint*/
x10_main =e8_10_main+ e9_10_main;	/* structural input constraint*/
x9_main =e9_10_main;	/* structural output constraint*/
x9_main =e6_9_main;	/* structural input constraint*/
x8_main =e8_10_main;	/* structural output constraint*/
x8_main =e6_8_main;	/* structural input constraint*/
x7_main =e7_5_main;	/* structural output constraint*/
x7_main =e5_7_main;	/* structural input constraint*/
x6_main =e6_9_main+ e6_8_main;	/* structural output constraint*/
x6_main =e5_6_main;	/* structural input constraint*/
x5_main =e5_7_main+ e5_6_main;	/* structural output constraint*/
x5_main =e3_5_main+ e7_5_main;	/* structural input constraint*/
x4_main =e4_2_main;	/* structural output constraint*/
x4_main =e2_4_main;	/* structural input constraint*/
x3_main =e3_5_main;	/* structural output constraint*/
x3_main =e2_3_main;	/* structural input constraint*/
x2_main =e2_4_main+ e2_3_main;	/* structural output constraint*/
x2_main =e1_2_main+ e4_2_main;	/* structural input constraint*/
x1_main =e1_2_main;	/* structural output constraint*/
x1_main =e0_1_main;	/* structural input constraint*/
x0_main =e0_1_main;	/* structural output constraint*/
x7_main = 10;
x4_main = 10;
int e8_10_main;
int e5_6_main;
int e7_5_main;
int e5_7_main;
int x1_main;
int e2_4_main;
int e0_1_main;
int x3_main;
int x8_main;
int e2_3_main;
int x7_main;
int x2_main;
int x6_main;
int e1_2_main;
int e6_8_main;
int x5_main;
int e6_9_main;
int x0_main;
int e3_5_main;
int e4_2_main;
int x4_main;
int x9_main;
int x11_main;
int e9_10_main;
int x10_main;
int e10_11_main;
